(declare-const a Int)
(declare-const a_1 Int)
(declare-const a_2 Int)
(declare-const a_3 Int)
(declare-const a_4 Int)
(declare-const a_5 Int)
(declare-const a_6 Int)
(declare-const a_7 Int)
(declare-const c Int)
(declare-const c_1 Int)
(declare-const c_2 Int)
(declare-const c_3 Int)
(declare-const p1 Int)
(declare-const p1_1 Int)
(declare-const p1_2 Int)
(declare-const p1_3 Int)
(declare-const p1_4 Int)
(declare-const p1_5 Int)
(declare-const p1_6 Int)
(declare-const p1_7 Int)
(declare-const p1_8 Int)
(declare-const p1_9 Int)
(declare-const p1_10 Int)
(declare-const p1_11 Int)
(declare-const p1_12 Int)
(declare-const p1_13 Int)
(declare-const p1_14 Int)
(declare-const p1_15 Int)
(declare-const p1_16 Int)
(declare-const p1_17 Int)
(declare-const p1_18 Int)
(declare-const p1_19 Int)
(declare-const p1_20 Int)
(declare-const p1_21 Int)
(declare-const p1_22 Int)
(declare-const p1_23 Int)
(declare-const p1_24 Int)
(declare-const p1_25 Int)
(declare-const p1_26 Int)
(declare-const p1_27 Int)
(declare-const p1_28 Int)
(declare-const p1_29 Int)
(declare-const p1_30 Int)
(declare-const p1_31 Int)
(declare-const p1_32 Int)
(declare-const p1_33 Int)
(declare-const p1_34 Int)
(declare-const p1_35 Int)
(declare-const p1_36 Int)
(declare-const p1_37 Int)
(declare-const p1_38 Int)
(declare-const p1_39 Int)
(declare-const p2 Bool)
(declare-const p2_1 Bool)
(declare-const p2_2 Bool)
(declare-const p2_3 Bool)
(declare-const p2_4 Bool)
(declare-const p2_5 Bool)
(declare-const p2_6 Bool)
(declare-const p2_7 Bool)
(declare-const p2_8 Bool)
(declare-const p2_9 Bool)
(declare-const p2_10 Bool)
(declare-const p2_11 Bool)
(declare-const p2_12 Bool)
(declare-const p2_13 Bool)
(declare-const p2_14 Bool)
(declare-const p2_15 Bool)
(declare-const p2_16 Bool)
(declare-const p2_17 Bool)
(declare-const p2_18 Bool)
(declare-const p2_19 Bool)
(declare-const p2_20 Bool)
(declare-const p2_21 Bool)
(declare-const p2_22 Bool)
(declare-const p2_23 Bool)
(declare-const p2_24 Bool)
(declare-const p2_25 Bool)
(declare-const p2_26 Bool)
(declare-const p2_27 Bool)
(declare-const p2_28 Bool)
(declare-const p2_29 Bool)
(declare-const p2_30 Bool)
(declare-const p2_31 Bool)
(declare-const p2_32 Bool)
(declare-const p2_33 Bool)
(declare-const p2_34 Bool)
(declare-const p2_35 Bool)
(declare-const p2_36 Bool)
(declare-const p2_37 Bool)
(declare-const p2_38 Bool)
(declare-const p2_39 Bool)
(assert (>= a 0))
(assert (>= a_1 0))
(assert (>= a_2 0))
(assert (>= a_3 0))
(assert (>= a_4 0))
(assert (>= a_5 0))
(assert (>= a_6 0))
(assert (>= a_7 0))
(assert (>= c 0))
(assert (>= c_1 0))
(assert (>= c_2 0))
(assert (>= c_3 0))
(assert (>= p1 0))
(assert (>= p1_1 0))
(assert (>= p1_2 0))
(assert (>= p1_3 0))
(assert (>= p1_4 0))
(assert (>= p1_5 0))
(assert (>= p1_6 0))
(assert (>= p1_7 0))
(assert (>= p1_8 0))
(assert (>= p1_9 0))
(assert (>= p1_10 0))
(assert (>= p1_11 0))
(assert (>= p1_12 0))
(assert (>= p1_13 0))
(assert (>= p1_14 0))
(assert (>= p1_15 0))
(assert (>= p1_16 0))
(assert (>= p1_17 0))
(assert (>= p1_18 0))
(assert (>= p1_19 0))
(assert (>= p1_20 0))
(assert (>= p1_21 0))
(assert (>= p1_22 0))
(assert (>= p1_23 0))
(assert (>= p1_24 0))
(assert (>= p1_25 0))
(assert (>= p1_26 0))
(assert (>= p1_27 0))
(assert (>= p1_28 0))
(assert (>= p1_29 0))
(assert (>= p1_30 0))
(assert (>= p1_31 0))
(assert (>= p1_32 0))
(assert (>= p1_33 0))
(assert (>= p1_34 0))
(assert (>= p1_35 0))
(assert (>= p1_36 0))
(assert (>= p1_37 0))
(assert (>= p1_38 0))
(assert (>= p1_39 0))
(assert
 (not
  (=>
   (and (<= p1_39 4) (<= p1_38 4) (<= p1_37 4) (<= p1_36 4) (<= p1_35 4)
    (<= p1_34 4) (<= p1_33 4) (<= p1_32 4) (<= p1_31 4) (<= p1_30 4)
    (<= p1_29 4) (<= p1_28 4) (<= p1_27 4) (<= p1_26 4) (<= p1_25 4)
    (<= p1_24 4) (<= p1_23 4) (<= p1_22 4) (<= p1_21 4) (<= p1_20 4)
    (<= p1_19 4) (<= p1_18 4) (<= p1_17 4) (<= p1_16 4) (<= p1_15 4)
    (<= p1_14 4) (<= p1_13 4) (<= p1_12 4) (<= p1_11 4) (<= p1_10 4)
    (<= p1_9 4) (<= p1_8 4) (<= p1_7 4) (<= p1_6 4) (<= p1_5 4) (<= p1_4 4)
    (<= p1_3 4) (<= p1_2 4) (<= p1_1 4) (<= p1 4))
   (=>
    (and
     (= a_2
      (+ a (ite (= p1 1) 1 0) (ite (= p1_5 1) 1 0) (ite (= p1_2 1) 1 0)
       (ite (= p1_7 1) 1 0) (ite (= p1_1 1) 1 0) (ite (= p1_6 1) 1 0)
       (ite (= p1_3 1) 1 0) (ite (= p1_8 1) 1 0) (ite (= p1_4 1) 1 0)
       (ite (= p1_9 1) 1 0)))
     (= c_1
      (+ c (ite (= p1 3) 1 0) (ite (= p1_5 3) 1 0) (ite (= p1_2 3) 1 0)
       (ite (= p1_7 3) 1 0) (ite (= p1_1 3) 1 0) (ite (= p1_6 3) 1 0)
       (ite (= p1_3 3) 1 0) (ite (= p1_8 3) 1 0) (ite (= p1_4 3) 1 0)
       (ite (= p1_9 3) 1 0)))
     (= a_3
      (+ a_1 (ite (= p1 2) 1 0) (ite (= p1_5 2) 1 0) (ite (= p1_2 2) 1 0)
       (ite (= p1_7 2) 1 0) (ite (= p1_1 2) 1 0) (ite (= p1_6 2) 1 0)
       (ite (= p1_3 2) 1 0) (ite (= p1_8 2) 1 0) (ite (= p1_4 2) 1 0)
       (ite (= p1_9 2) 1 0)))
     (=> (= p1 1) (and (= p1_10 (ite p2 4 0)) (iff p2_10 p2)))
     (=> (= p1 2) (and (= p1_10 (ite p2 3 0)) (iff p2_10 p2)))
     (=> (= p1 3) (and (= p1_10 (ite p2 4 2)) (iff p2_10 p2)))
     (=> (= p1 0) (and (or (= p1_10 1) (= p1_10 2)) p2_10))
     (=> (and (= p1 0) (= p1_10 1)) (<= a_1 a))
     (=> (and (= p1 0) (= p1_10 2)) (<= a a_1))
     (=> (= p1 4) (and (or (= p1_10 1) (= p1_10 3)) (not p2_10)))
     (=> (and (= p1 4) (= p1_10 1)) (<= c a))
     (=> (and (= p1 4) (= p1_10 3)) (<= a c))
     (=> (= p1_4 1) (and (= p1_14 (ite p2_4 4 0)) (iff p2_14 p2_4)))
     (=> (= p1_4 2) (and (= p1_14 (ite p2_4 3 0)) (iff p2_14 p2_4)))
     (=> (= p1_4 3) (and (= p1_14 (ite p2_4 4 2)) (iff p2_14 p2_4)))
     (=> (= p1_4 0) (and (or (= p1_14 1) (= p1_14 2)) p2_14))
     (=> (and (= p1_4 0) (= p1_14 1)) (<= a_1 a))
     (=> (and (= p1_4 0) (= p1_14 2)) (<= a a_1))
     (=> (= p1_4 4) (and (or (= p1_14 1) (= p1_14 3)) (not p2_14)))
     (=> (and (= p1_4 4) (= p1_14 1)) (<= c a))
     (=> (and (= p1_4 4) (= p1_14 3)) (<= a c))
     (=> (= p1_1 1) (and (= p1_11 (ite p2_1 4 0)) (iff p2_11 p2_1)))
     (=> (= p1_1 2) (and (= p1_11 (ite p2_1 3 0)) (iff p2_11 p2_1)))
     (=> (= p1_1 3) (and (= p1_11 (ite p2_1 4 2)) (iff p2_11 p2_1)))
     (=> (= p1_1 0) (and (or (= p1_11 1) (= p1_11 2)) p2_11))
     (=> (and (= p1_1 0) (= p1_11 1)) (<= a_1 a))
     (=> (and (= p1_1 0) (= p1_11 2)) (<= a a_1))
     (=> (= p1_1 4) (and (or (= p1_11 1) (= p1_11 3)) (not p2_11)))
     (=> (and (= p1_1 4) (= p1_11 1)) (<= c a))
     (=> (and (= p1_1 4) (= p1_11 3)) (<= a c))
     (=> (= p1_2 1) (and (= p1_12 (ite p2_2 4 0)) (iff p2_12 p2_2)))
     (=> (= p1_2 2) (and (= p1_12 (ite p2_2 3 0)) (iff p2_12 p2_2)))
     (=> (= p1_2 3) (and (= p1_12 (ite p2_2 4 2)) (iff p2_12 p2_2)))
     (=> (= p1_2 0) (and (or (= p1_12 1) (= p1_12 2)) p2_12))
     (=> (and (= p1_2 0) (= p1_12 1)) (<= a_1 a))
     (=> (and (= p1_2 0) (= p1_12 2)) (<= a a_1))
     (=> (= p1_2 4) (and (or (= p1_12 1) (= p1_12 3)) (not p2_12)))
     (=> (and (= p1_2 4) (= p1_12 1)) (<= c a))
     (=> (and (= p1_2 4) (= p1_12 3)) (<= a c))
     (=> (= p1_3 1) (and (= p1_13 (ite p2_3 4 0)) (iff p2_13 p2_3)))
     (=> (= p1_3 2) (and (= p1_13 (ite p2_3 3 0)) (iff p2_13 p2_3)))
     (=> (= p1_3 3) (and (= p1_13 (ite p2_3 4 2)) (iff p2_13 p2_3)))
     (=> (= p1_3 0) (and (or (= p1_13 1) (= p1_13 2)) p2_13))
     (=> (and (= p1_3 0) (= p1_13 1)) (<= a_1 a))
     (=> (and (= p1_3 0) (= p1_13 2)) (<= a a_1))
     (=> (= p1_3 4) (and (or (= p1_13 1) (= p1_13 3)) (not p2_13)))
     (=> (and (= p1_3 4) (= p1_13 1)) (<= c a))
     (=> (and (= p1_3 4) (= p1_13 3)) (<= a c))
     (=> (= p1_5 1) (and (= p1_15 (ite p2_5 4 0)) (iff p2_15 p2_5)))
     (=> (= p1_5 2) (and (= p1_15 (ite p2_5 3 0)) (iff p2_15 p2_5)))
     (=> (= p1_5 3) (and (= p1_15 (ite p2_5 4 2)) (iff p2_15 p2_5)))
     (=> (= p1_5 0) (and (or (= p1_15 1) (= p1_15 2)) p2_15))
     (=> (and (= p1_5 0) (= p1_15 1)) (<= a_1 a))
     (=> (and (= p1_5 0) (= p1_15 2)) (<= a a_1))
     (=> (= p1_5 4) (and (or (= p1_15 1) (= p1_15 3)) (not p2_15)))
     (=> (and (= p1_5 4) (= p1_15 1)) (<= c a))
     (=> (and (= p1_5 4) (= p1_15 3)) (<= a c))
     (=> (= p1_9 1) (and (= p1_19 (ite p2_9 4 0)) (iff p2_19 p2_9)))
     (=> (= p1_9 2) (and (= p1_19 (ite p2_9 3 0)) (iff p2_19 p2_9)))
     (=> (= p1_9 3) (and (= p1_19 (ite p2_9 4 2)) (iff p2_19 p2_9)))
     (=> (= p1_9 0) (and (or (= p1_19 1) (= p1_19 2)) p2_19))
     (=> (and (= p1_9 0) (= p1_19 1)) (<= a_1 a))
     (=> (and (= p1_9 0) (= p1_19 2)) (<= a a_1))
     (=> (= p1_9 4) (and (or (= p1_19 1) (= p1_19 3)) (not p2_19)))
     (=> (and (= p1_9 4) (= p1_19 1)) (<= c a))
     (=> (and (= p1_9 4) (= p1_19 3)) (<= a c))
     (=> (= p1_6 1) (and (= p1_16 (ite p2_6 4 0)) (iff p2_16 p2_6)))
     (=> (= p1_6 2) (and (= p1_16 (ite p2_6 3 0)) (iff p2_16 p2_6)))
     (=> (= p1_6 3) (and (= p1_16 (ite p2_6 4 2)) (iff p2_16 p2_6)))
     (=> (= p1_6 0) (and (or (= p1_16 1) (= p1_16 2)) p2_16))
     (=> (and (= p1_6 0) (= p1_16 1)) (<= a_1 a))
     (=> (and (= p1_6 0) (= p1_16 2)) (<= a a_1))
     (=> (= p1_6 4) (and (or (= p1_16 1) (= p1_16 3)) (not p2_16)))
     (=> (and (= p1_6 4) (= p1_16 1)) (<= c a))
     (=> (and (= p1_6 4) (= p1_16 3)) (<= a c))
     (=> (= p1_7 1) (and (= p1_17 (ite p2_7 4 0)) (iff p2_17 p2_7)))
     (=> (= p1_7 2) (and (= p1_17 (ite p2_7 3 0)) (iff p2_17 p2_7)))
     (=> (= p1_7 3) (and (= p1_17 (ite p2_7 4 2)) (iff p2_17 p2_7)))
     (=> (= p1_7 0) (and (or (= p1_17 1) (= p1_17 2)) p2_17))
     (=> (and (= p1_7 0) (= p1_17 1)) (<= a_1 a))
     (=> (and (= p1_7 0) (= p1_17 2)) (<= a a_1))
     (=> (= p1_7 4) (and (or (= p1_17 1) (= p1_17 3)) (not p2_17)))
     (=> (and (= p1_7 4) (= p1_17 1)) (<= c a))
     (=> (and (= p1_7 4) (= p1_17 3)) (<= a c))
     (=> (= p1_8 1) (and (= p1_18 (ite p2_8 4 0)) (iff p2_18 p2_8)))
     (=> (= p1_8 2) (and (= p1_18 (ite p2_8 3 0)) (iff p2_18 p2_8)))
     (=> (= p1_8 3) (and (= p1_18 (ite p2_8 4 2)) (iff p2_18 p2_8)))
     (=> (= p1_8 0) (and (or (= p1_18 1) (= p1_18 2)) p2_18))
     (=> (and (= p1_8 0) (= p1_18 1)) (<= a_1 a))
     (=> (and (= p1_8 0) (= p1_18 2)) (<= a a_1))
     (=> (= p1_8 4) (and (or (= p1_18 1) (= p1_18 3)) (not p2_18)))
     (=> (and (= p1_8 4) (= p1_18 1)) (<= c a))
     (=> (and (= p1_8 4) (= p1_18 3)) (<= a c))
     (= a_4
      (+ a_2 (ite (= p1_10 1) 1 0) (ite (= p1_15 1) 1 0)
       (ite (= p1_12 1) 1 0) (ite (= p1_17 1) 1 0) (ite (= p1_11 1) 1 0)
       (ite (= p1_16 1) 1 0) (ite (= p1_13 1) 1 0) (ite (= p1_18 1) 1 0)
       (ite (= p1_14 1) 1 0) (ite (= p1_19 1) 1 0)))
     (= c_2
      (+ c_1 (ite (= p1_10 3) 1 0) (ite (= p1_15 3) 1 0)
       (ite (= p1_12 3) 1 0) (ite (= p1_17 3) 1 0) (ite (= p1_11 3) 1 0)
       (ite (= p1_16 3) 1 0) (ite (= p1_13 3) 1 0) (ite (= p1_18 3) 1 0)
       (ite (= p1_14 3) 1 0) (ite (= p1_19 3) 1 0)))
     (= a_5
      (+ a_3 (ite (= p1_10 2) 1 0) (ite (= p1_15 2) 1 0)
       (ite (= p1_12 2) 1 0) (ite (= p1_17 2) 1 0) (ite (= p1_11 2) 1 0)
       (ite (= p1_16 2) 1 0) (ite (= p1_13 2) 1 0) (ite (= p1_18 2) 1 0)
       (ite (= p1_14 2) 1 0) (ite (= p1_19 2) 1 0)))
     (=> (= p1_10 1) (and (= p1_20 (ite p2_10 4 0)) (iff p2_20 p2_10)))
     (=> (= p1_10 2) (and (= p1_20 (ite p2_10 3 0)) (iff p2_20 p2_10)))
     (=> (= p1_10 3) (and (= p1_20 (ite p2_10 4 2)) (iff p2_20 p2_10)))
     (=> (= p1_10 0) (and (or (= p1_20 1) (= p1_20 2)) p2_20))
     (=> (and (= p1_10 0) (= p1_20 1)) (<= a_3 a_2))
     (=> (and (= p1_10 0) (= p1_20 2)) (<= a_2 a_3))
     (=> (= p1_10 4) (and (or (= p1_20 1) (= p1_20 3)) (not p2_20)))
     (=> (and (= p1_10 4) (= p1_20 1)) (<= c_1 a_2))
     (=> (and (= p1_10 4) (= p1_20 3)) (<= a_2 c_1))
     (=> (= p1_14 1) (and (= p1_24 (ite p2_14 4 0)) (iff p2_24 p2_14)))
     (=> (= p1_14 2) (and (= p1_24 (ite p2_14 3 0)) (iff p2_24 p2_14)))
     (=> (= p1_14 3) (and (= p1_24 (ite p2_14 4 2)) (iff p2_24 p2_14)))
     (=> (= p1_14 0) (and (or (= p1_24 1) (= p1_24 2)) p2_24))
     (=> (and (= p1_14 0) (= p1_24 1)) (<= a_3 a_2))
     (=> (and (= p1_14 0) (= p1_24 2)) (<= a_2 a_3))
     (=> (= p1_14 4) (and (or (= p1_24 1) (= p1_24 3)) (not p2_24)))
     (=> (and (= p1_14 4) (= p1_24 1)) (<= c_1 a_2))
     (=> (and (= p1_14 4) (= p1_24 3)) (<= a_2 c_1))
     (=> (= p1_11 1) (and (= p1_21 (ite p2_11 4 0)) (iff p2_21 p2_11)))
     (=> (= p1_11 2) (and (= p1_21 (ite p2_11 3 0)) (iff p2_21 p2_11)))
     (=> (= p1_11 3) (and (= p1_21 (ite p2_11 4 2)) (iff p2_21 p2_11)))
     (=> (= p1_11 0) (and (or (= p1_21 1) (= p1_21 2)) p2_21))
     (=> (and (= p1_11 0) (= p1_21 1)) (<= a_3 a_2))
     (=> (and (= p1_11 0) (= p1_21 2)) (<= a_2 a_3))
     (=> (= p1_11 4) (and (or (= p1_21 1) (= p1_21 3)) (not p2_21)))
     (=> (and (= p1_11 4) (= p1_21 1)) (<= c_1 a_2))
     (=> (and (= p1_11 4) (= p1_21 3)) (<= a_2 c_1))
     (=> (= p1_12 1) (and (= p1_22 (ite p2_12 4 0)) (iff p2_22 p2_12)))
     (=> (= p1_12 2) (and (= p1_22 (ite p2_12 3 0)) (iff p2_22 p2_12)))
     (=> (= p1_12 3) (and (= p1_22 (ite p2_12 4 2)) (iff p2_22 p2_12)))
     (=> (= p1_12 0) (and (or (= p1_22 1) (= p1_22 2)) p2_22))
     (=> (and (= p1_12 0) (= p1_22 1)) (<= a_3 a_2))
     (=> (and (= p1_12 0) (= p1_22 2)) (<= a_2 a_3))
     (=> (= p1_12 4) (and (or (= p1_22 1) (= p1_22 3)) (not p2_22)))
     (=> (and (= p1_12 4) (= p1_22 1)) (<= c_1 a_2))
     (=> (and (= p1_12 4) (= p1_22 3)) (<= a_2 c_1))
     (=> (= p1_13 1) (and (= p1_23 (ite p2_13 4 0)) (iff p2_23 p2_13)))
     (=> (= p1_13 2) (and (= p1_23 (ite p2_13 3 0)) (iff p2_23 p2_13)))
     (=> (= p1_13 3) (and (= p1_23 (ite p2_13 4 2)) (iff p2_23 p2_13)))
     (=> (= p1_13 0) (and (or (= p1_23 1) (= p1_23 2)) p2_23))
     (=> (and (= p1_13 0) (= p1_23 1)) (<= a_3 a_2))
     (=> (and (= p1_13 0) (= p1_23 2)) (<= a_2 a_3))
     (=> (= p1_13 4) (and (or (= p1_23 1) (= p1_23 3)) (not p2_23)))
     (=> (and (= p1_13 4) (= p1_23 1)) (<= c_1 a_2))
     (=> (and (= p1_13 4) (= p1_23 3)) (<= a_2 c_1))
     (=> (= p1_15 1) (and (= p1_25 (ite p2_15 4 0)) (iff p2_25 p2_15)))
     (=> (= p1_15 2) (and (= p1_25 (ite p2_15 3 0)) (iff p2_25 p2_15)))
     (=> (= p1_15 3) (and (= p1_25 (ite p2_15 4 2)) (iff p2_25 p2_15)))
     (=> (= p1_15 0) (and (or (= p1_25 1) (= p1_25 2)) p2_25))
     (=> (and (= p1_15 0) (= p1_25 1)) (<= a_3 a_2))
     (=> (and (= p1_15 0) (= p1_25 2)) (<= a_2 a_3))
     (=> (= p1_15 4) (and (or (= p1_25 1) (= p1_25 3)) (not p2_25)))
     (=> (and (= p1_15 4) (= p1_25 1)) (<= c_1 a_2))
     (=> (and (= p1_15 4) (= p1_25 3)) (<= a_2 c_1))
     (=> (= p1_19 1) (and (= p1_29 (ite p2_19 4 0)) (iff p2_29 p2_19)))
     (=> (= p1_19 2) (and (= p1_29 (ite p2_19 3 0)) (iff p2_29 p2_19)))
     (=> (= p1_19 3) (and (= p1_29 (ite p2_19 4 2)) (iff p2_29 p2_19)))
     (=> (= p1_19 0) (and (or (= p1_29 1) (= p1_29 2)) p2_29))
     (=> (and (= p1_19 0) (= p1_29 1)) (<= a_3 a_2))
     (=> (and (= p1_19 0) (= p1_29 2)) (<= a_2 a_3))
     (=> (= p1_19 4) (and (or (= p1_29 1) (= p1_29 3)) (not p2_29)))
     (=> (and (= p1_19 4) (= p1_29 1)) (<= c_1 a_2))
     (=> (and (= p1_19 4) (= p1_29 3)) (<= a_2 c_1))
     (=> (= p1_16 1) (and (= p1_26 (ite p2_16 4 0)) (iff p2_26 p2_16)))
     (=> (= p1_16 2) (and (= p1_26 (ite p2_16 3 0)) (iff p2_26 p2_16)))
     (=> (= p1_16 3) (and (= p1_26 (ite p2_16 4 2)) (iff p2_26 p2_16)))
     (=> (= p1_16 0) (and (or (= p1_26 1) (= p1_26 2)) p2_26))
     (=> (and (= p1_16 0) (= p1_26 1)) (<= a_3 a_2))
     (=> (and (= p1_16 0) (= p1_26 2)) (<= a_2 a_3))
     (=> (= p1_16 4) (and (or (= p1_26 1) (= p1_26 3)) (not p2_26)))
     (=> (and (= p1_16 4) (= p1_26 1)) (<= c_1 a_2))
     (=> (and (= p1_16 4) (= p1_26 3)) (<= a_2 c_1))
     (=> (= p1_17 1) (and (= p1_27 (ite p2_17 4 0)) (iff p2_27 p2_17)))
     (=> (= p1_17 2) (and (= p1_27 (ite p2_17 3 0)) (iff p2_27 p2_17)))
     (=> (= p1_17 3) (and (= p1_27 (ite p2_17 4 2)) (iff p2_27 p2_17)))
     (=> (= p1_17 0) (and (or (= p1_27 1) (= p1_27 2)) p2_27))
     (=> (and (= p1_17 0) (= p1_27 1)) (<= a_3 a_2))
     (=> (and (= p1_17 0) (= p1_27 2)) (<= a_2 a_3))
     (=> (= p1_17 4) (and (or (= p1_27 1) (= p1_27 3)) (not p2_27)))
     (=> (and (= p1_17 4) (= p1_27 1)) (<= c_1 a_2))
     (=> (and (= p1_17 4) (= p1_27 3)) (<= a_2 c_1))
     (=> (= p1_18 1) (and (= p1_28 (ite p2_18 4 0)) (iff p2_28 p2_18)))
     (=> (= p1_18 2) (and (= p1_28 (ite p2_18 3 0)) (iff p2_28 p2_18)))
     (=> (= p1_18 3) (and (= p1_28 (ite p2_18 4 2)) (iff p2_28 p2_18)))
     (=> (= p1_18 0) (and (or (= p1_28 1) (= p1_28 2)) p2_28))
     (=> (and (= p1_18 0) (= p1_28 1)) (<= a_3 a_2))
     (=> (and (= p1_18 0) (= p1_28 2)) (<= a_2 a_3))
     (=> (= p1_18 4) (and (or (= p1_28 1) (= p1_28 3)) (not p2_28)))
     (=> (and (= p1_18 4) (= p1_28 1)) (<= c_1 a_2))
     (=> (and (= p1_18 4) (= p1_28 3)) (<= a_2 c_1))
     (= a_6
      (+ a_4 (ite (= p1_20 1) 1 0) (ite (= p1_25 1) 1 0)
       (ite (= p1_22 1) 1 0) (ite (= p1_27 1) 1 0) (ite (= p1_21 1) 1 0)
       (ite (= p1_26 1) 1 0) (ite (= p1_23 1) 1 0) (ite (= p1_28 1) 1 0)
       (ite (= p1_24 1) 1 0) (ite (= p1_29 1) 1 0)))
     (= c_3
      (+ c_2 (ite (= p1_20 3) 1 0) (ite (= p1_25 3) 1 0)
       (ite (= p1_22 3) 1 0) (ite (= p1_27 3) 1 0) (ite (= p1_21 3) 1 0)
       (ite (= p1_26 3) 1 0) (ite (= p1_23 3) 1 0) (ite (= p1_28 3) 1 0)
       (ite (= p1_24 3) 1 0) (ite (= p1_29 3) 1 0)))
     (= a_7
      (+ a_5 (ite (= p1_20 2) 1 0) (ite (= p1_25 2) 1 0)
       (ite (= p1_22 2) 1 0) (ite (= p1_27 2) 1 0) (ite (= p1_21 2) 1 0)
       (ite (= p1_26 2) 1 0) (ite (= p1_23 2) 1 0) (ite (= p1_28 2) 1 0)
       (ite (= p1_24 2) 1 0) (ite (= p1_29 2) 1 0)))
     (=> (= p1_20 1) (and (= p1_30 (ite p2_20 4 0)) (iff p2_30 p2_20)))
     (=> (= p1_20 2) (and (= p1_30 (ite p2_20 3 0)) (iff p2_30 p2_20)))
     (=> (= p1_20 3) (and (= p1_30 (ite p2_20 4 2)) (iff p2_30 p2_20)))
     (=> (= p1_20 0) (and (or (= p1_30 1) (= p1_30 2)) p2_30))
     (=> (and (= p1_20 0) (= p1_30 1)) (<= a_5 a_4))
     (=> (and (= p1_20 0) (= p1_30 2)) (<= a_4 a_5))
     (=> (= p1_20 4) (and (or (= p1_30 1) (= p1_30 3)) (not p2_30)))
     (=> (and (= p1_20 4) (= p1_30 1)) (<= c_2 a_4))
     (=> (and (= p1_20 4) (= p1_30 3)) (<= a_4 c_2))
     (=> (= p1_24 1) (and (= p1_34 (ite p2_24 4 0)) (iff p2_34 p2_24)))
     (=> (= p1_24 2) (and (= p1_34 (ite p2_24 3 0)) (iff p2_34 p2_24)))
     (=> (= p1_24 3) (and (= p1_34 (ite p2_24 4 2)) (iff p2_34 p2_24)))
     (=> (= p1_24 0) (and (or (= p1_34 1) (= p1_34 2)) p2_34))
     (=> (and (= p1_24 0) (= p1_34 1)) (<= a_5 a_4))
     (=> (and (= p1_24 0) (= p1_34 2)) (<= a_4 a_5))
     (=> (= p1_24 4) (and (or (= p1_34 1) (= p1_34 3)) (not p2_34)))
     (=> (and (= p1_24 4) (= p1_34 1)) (<= c_2 a_4))
     (=> (and (= p1_24 4) (= p1_34 3)) (<= a_4 c_2))
     (=> (= p1_21 1) (and (= p1_31 (ite p2_21 4 0)) (iff p2_31 p2_21)))
     (=> (= p1_21 2) (and (= p1_31 (ite p2_21 3 0)) (iff p2_31 p2_21)))
     (=> (= p1_21 3) (and (= p1_31 (ite p2_21 4 2)) (iff p2_31 p2_21)))
     (=> (= p1_21 0) (and (or (= p1_31 1) (= p1_31 2)) p2_31))
     (=> (and (= p1_21 0) (= p1_31 1)) (<= a_5 a_4))
     (=> (and (= p1_21 0) (= p1_31 2)) (<= a_4 a_5))
     (=> (= p1_21 4) (and (or (= p1_31 1) (= p1_31 3)) (not p2_31)))
     (=> (and (= p1_21 4) (= p1_31 1)) (<= c_2 a_4))
     (=> (and (= p1_21 4) (= p1_31 3)) (<= a_4 c_2))
     (=> (= p1_22 1) (and (= p1_32 (ite p2_22 4 0)) (iff p2_32 p2_22)))
     (=> (= p1_22 2) (and (= p1_32 (ite p2_22 3 0)) (iff p2_32 p2_22)))
     (=> (= p1_22 3) (and (= p1_32 (ite p2_22 4 2)) (iff p2_32 p2_22)))
     (=> (= p1_22 0) (and (or (= p1_32 1) (= p1_32 2)) p2_32))
     (=> (and (= p1_22 0) (= p1_32 1)) (<= a_5 a_4))
     (=> (and (= p1_22 0) (= p1_32 2)) (<= a_4 a_5))
     (=> (= p1_22 4) (and (or (= p1_32 1) (= p1_32 3)) (not p2_32)))
     (=> (and (= p1_22 4) (= p1_32 1)) (<= c_2 a_4))
     (=> (and (= p1_22 4) (= p1_32 3)) (<= a_4 c_2))
     (=> (= p1_23 1) (and (= p1_33 (ite p2_23 4 0)) (iff p2_33 p2_23)))
     (=> (= p1_23 2) (and (= p1_33 (ite p2_23 3 0)) (iff p2_33 p2_23)))
     (=> (= p1_23 3) (and (= p1_33 (ite p2_23 4 2)) (iff p2_33 p2_23)))
     (=> (= p1_23 0) (and (or (= p1_33 1) (= p1_33 2)) p2_33))
     (=> (and (= p1_23 0) (= p1_33 1)) (<= a_5 a_4))
     (=> (and (= p1_23 0) (= p1_33 2)) (<= a_4 a_5))
     (=> (= p1_23 4) (and (or (= p1_33 1) (= p1_33 3)) (not p2_33)))
     (=> (and (= p1_23 4) (= p1_33 1)) (<= c_2 a_4))
     (=> (and (= p1_23 4) (= p1_33 3)) (<= a_4 c_2))
     (=> (= p1_25 1) (and (= p1_35 (ite p2_25 4 0)) (iff p2_35 p2_25)))
     (=> (= p1_25 2) (and (= p1_35 (ite p2_25 3 0)) (iff p2_35 p2_25)))
     (=> (= p1_25 3) (and (= p1_35 (ite p2_25 4 2)) (iff p2_35 p2_25)))
     (=> (= p1_25 0) (and (or (= p1_35 1) (= p1_35 2)) p2_35))
     (=> (and (= p1_25 0) (= p1_35 1)) (<= a_5 a_4))
     (=> (and (= p1_25 0) (= p1_35 2)) (<= a_4 a_5))
     (=> (= p1_25 4) (and (or (= p1_35 1) (= p1_35 3)) (not p2_35)))
     (=> (and (= p1_25 4) (= p1_35 1)) (<= c_2 a_4))
     (=> (and (= p1_25 4) (= p1_35 3)) (<= a_4 c_2))
     (=> (= p1_29 1) (and (= p1_39 (ite p2_29 4 0)) (iff p2_39 p2_29)))
     (=> (= p1_29 2) (and (= p1_39 (ite p2_29 3 0)) (iff p2_39 p2_29)))
     (=> (= p1_29 3) (and (= p1_39 (ite p2_29 4 2)) (iff p2_39 p2_29)))
     (=> (= p1_29 0) (and (or (= p1_39 1) (= p1_39 2)) p2_39))
     (=> (and (= p1_29 0) (= p1_39 1)) (<= a_5 a_4))
     (=> (and (= p1_29 0) (= p1_39 2)) (<= a_4 a_5))
     (=> (= p1_29 4) (and (or (= p1_39 1) (= p1_39 3)) (not p2_39)))
     (=> (and (= p1_29 4) (= p1_39 1)) (<= c_2 a_4))
     (=> (and (= p1_29 4) (= p1_39 3)) (<= a_4 c_2))
     (=> (= p1_26 1) (and (= p1_36 (ite p2_26 4 0)) (iff p2_36 p2_26)))
     (=> (= p1_26 2) (and (= p1_36 (ite p2_26 3 0)) (iff p2_36 p2_26)))
     (=> (= p1_26 3) (and (= p1_36 (ite p2_26 4 2)) (iff p2_36 p2_26)))
     (=> (= p1_26 0) (and (or (= p1_36 1) (= p1_36 2)) p2_36))
     (=> (and (= p1_26 0) (= p1_36 1)) (<= a_5 a_4))
     (=> (and (= p1_26 0) (= p1_36 2)) (<= a_4 a_5))
     (=> (= p1_26 4) (and (or (= p1_36 1) (= p1_36 3)) (not p2_36)))
     (=> (and (= p1_26 4) (= p1_36 1)) (<= c_2 a_4))
     (=> (and (= p1_26 4) (= p1_36 3)) (<= a_4 c_2))
     (=> (= p1_27 1) (and (= p1_37 (ite p2_27 4 0)) (iff p2_37 p2_27)))
     (=> (= p1_27 2) (and (= p1_37 (ite p2_27 3 0)) (iff p2_37 p2_27)))
     (=> (= p1_27 3) (and (= p1_37 (ite p2_27 4 2)) (iff p2_37 p2_27)))
     (=> (= p1_27 0) (and (or (= p1_37 1) (= p1_37 2)) p2_37))
     (=> (and (= p1_27 0) (= p1_37 1)) (<= a_5 a_4))
     (=> (and (= p1_27 0) (= p1_37 2)) (<= a_4 a_5))
     (=> (= p1_27 4) (and (or (= p1_37 1) (= p1_37 3)) (not p2_37)))
     (=> (and (= p1_27 4) (= p1_37 1)) (<= c_2 a_4))
     (=> (and (= p1_27 4) (= p1_37 3)) (<= a_4 c_2))
     (=> (= p1_28 1) (and (= p1_38 (ite p2_28 4 0)) (iff p2_38 p2_28)))
     (=> (= p1_28 2) (and (= p1_38 (ite p2_28 3 0)) (iff p2_38 p2_28)))
     (=> (= p1_28 3) (and (= p1_38 (ite p2_28 4 2)) (iff p2_38 p2_28)))
     (=> (= p1_28 0) (and (or (= p1_38 1) (= p1_38 2)) p2_38))
     (=> (and (= p1_28 0) (= p1_38 1)) (<= a_5 a_4))
     (=> (and (= p1_28 0) (= p1_38 2)) (<= a_4 a_5))
     (=> (= p1_28 4) (and (or (= p1_38 1) (= p1_38 3)) (not p2_38)))
     (=> (and (= p1_28 4) (= p1_38 1)) (<= c_2 a_4))
     (=> (and (= p1_28 4) (= p1_38 3)) (<= a_4 c_2))
     (> a (ite (<= a_1 c) c a_1)) (> a_2 (ite (<= a_3 c_1) c_1 a_3))
     (> a_4 (ite (<= a_5 c_2) c_2 a_5)))
    (> a_6 (ite (<= a_7 c_3) c_3 a_7))))))
(check-sat)
